10J3M/DAT/10J3MULR-3.dat
10 3
47.7912 13.0927
5.2778 34.6299
40.2671 13.5704
21.7905 4.6588
2.0843 46.8793
33.3275 31.8472
4.2673 28.6631
27.0236 27.7783
49.8037 13.5795
0.8656 35.1673
83.2888