10J3M/SOL/10J3MULR-3.sol
solution status: optimal solution found
objective value:                     110.976866666667
x#1#2                                               1 	(obj:0)
x#2#1                               0.154161458852351 	(obj:0)
x#2#2                               0.845838541147649 	(obj:0)
x#3#3                                               1 	(obj:0)
x#4#2                                               1 	(obj:0)
x#5#1                                               1 	(obj:0)
x#6#1                                               1 	(obj:0)
x#7#3                                               1 	(obj:0)
x#8#1                               0.370369976285152 	(obj:0)
x#8#3                               0.629630023714848 	(obj:0)
x#9#2                               0.379794175068736 	(obj:0)
x#9#3                               0.620205824931264 	(obj:0)
x#10#1                              0.421883302410985 	(obj:0)
x#10#3                              0.578116697589015 	(obj:0)
z                                    110.976866666667 	(obj:1)
